//This is the obj fxn for diet problem:
max: 7.0*x0 + 12.0*x1 + 7.0*x2 + 7.0*x3 + 5.0*x4 + 6.5*x5 + 9.99*x6 + 5.51*x7 + 11.0*x8 + 11.0*x9 + 11.0*x10 + 6.79*x11 + 6.79*x12 + 6.5*x13;
//These are the constraints:
7.0*x0 + 12.0*x1 + 7.0*x2 + 7.0*x3 + 5.0*x4 + 6.5*x5 + 9.99*x6 + 5.51*x7 + 11.0*x8 + 11.0*x9 + 11.0*x10 + 6.79*x11 + 6.79*x12 + 6.5*x13<= 71.42857142857143;
540.0*x0 + 189.0*x1 + 351.0*x2 + 360.0*x3 + 219.0*x4 + 190.0*x5 + 420.0*x6 + 553.0*x7 + 965.0*x8 + 808.0*x9 + 800.0*x10 + 616.0*x11 + 418.0*x12 + 300.0*x13<= 2000;
40.0*x0 + 11.0*x1 + 25.6*x2 + 17.0*x3 + 11.0*x4 + 2.8*x5 + 14.0*x6 + 15.2*x7 + 27.6*x8 + 13.4*x9 + 14.0*x10 + 29.0*x11 + 11.0*x12 + 20.0*x13<= 65;
15.0*x0 + 16.0*x1 + 8.1*x2 + 8.0*x3 + 5.2*x4 + 0.8*x5 + 5.0*x6 + 2.1*x7 + 8.4*x8 + 3.0*x9 + 3.6*x10 + 6.2*x11 + 3.5*x12 + 2.4*x13<= 20;
497.0*x0 + 402.0*x2 + 60.0*x3 + 129.0*x4 + 6.6*x5 + 245.0*x6 + 164.0*x8 + 157.0*x9 + 122.0*x10 + 126.0*x11 + 87.0*x12<= 300;
828.0*x0 + 439.0*x1 + 771.0*x2 + 750.0*x3 + 237.0*x4 + 317.0*x5 + 700.0*x6 + 357.0*x7 + 1025.0*x8 + 1040.0*x9 + 3766.0*x10 + 1178.0*x11 + 1658.0*x12 + 711.0*x13<= 2400;
0.7*x0 + 20.0*x1 + 1.4*x2 + 38.0*x3 + 23.0*x4 + 32.0*x5 + 34.0*x6 + 12.3*x7 + 74.1*x8 + 66.8*x9 + 56.9*x10 + 46.0*x11 + 47.0*x12 + 15.0*x13<= 300;
42.0*x0 + 3.8*x1 + 24.6*x2 + 14.0*x3 + 7.3*x4 + 7.6*x5 + 39.0*x6 + 108.0*x10 + 46.0*x11 + 33.0*x12 + 19.0*x13<= 50;
14.0*x0 + 12.0*x1 + 14.7*x2 + 4.0*x3 + 8.4*x4 + 0.8*x5 + 10.0*x6 + 100.0*x7 + 61.0*x8 + 41.0*x9 + 59.0*x10 + 321.0*x11 + 13.8*x12 + 1.6*x13<= 20;
6.0*x0 + 3.8*x1 + 4.7*x2 + 15.0*x3 + 0.1*x4 + 0.6*x5 + 15.0*x6 + 6.0*x7 + 7.0*x8 + 7.0*x9 + 12.0*x10 + 9.5*x11 + 8.4*x12 + 39.0*x13<= 2500;
21.0*x0 + 8.0*x1 + 11.4*x2 + 15.0*x3 + 5.1*x4 + 4.0*x5 + 25.0*x6 + 712.0*x7 + 1312.0*x8 + 725.0*x9 + 1130.0*x10 + 28.0*x11 + 17.0*x12 + 21.0*x13<= 45;
498.0*x0 + 381.0*x1 + 312.0*x2 + 240.0*x3 + 97.0*x4 + 256.0*x5 + 158.0*x6 + 93.9*x7 + 98.2*x8 + 99.1*x9 + 106.7*x10 + 1220.0*x11 + 759.0*x12 + 327.0*x13<= 2400;
x0 + x1 + x2 + x3 + x6 + x8 + x9 + x10 + x11 + x12<= 14;
x0 + x2 + x3 + x6 + x8 + x9 + x10 + x11 + x12<= 14;
x0 + x1 + x2 + x3 + x4 + x5 + x6 + x7 + x8 + x9 + x10 + x11 + x12 + x13<= 3;

x0>=0; x1>=0; x2>=0; x3>=0; x4>=0; x5>=0; x6>=0; x7>=0; x8>=0; x9>=0; x10>=0; x11>=0; x12>=0; x13>=0; 
//Make all variable type integers :
int x0, x1, x2, x3, x4, x5, x6, x7, x8, x9, x10, x11, x12, x13;
